nprocesses = 5;
processName = ["mixing","moulding","baking","decorating","packaging"];
duration = [|5,6,7,3,4,
            |3,3,2,2,2,
            |2,4,10,6,2|];  

nproducts = 3;
productName = ["chocolate-cake","lemon-cake","coconut-cake"];
itemsPerBatch = [200,100,300];
                         
maxNumOfBatches = [5,7,8,5,8]; 
